challenge2023/mznc2023_probs/evm-super-compilation/Kongu_run_code_of_0_block_240_0_input.dzn
TERM = { '.', s0, s1, s11, s14, s2, s21, s22, s23, s25, s26, s27, s31, s32, s33, s34, s35, s37, s38, s39, s40, s41, s42, s43, s44, s45, s46, s47};
null = '.';
s = 57;
n = 16;
ZEROARYOP = { TIMESTAMP_0 };
zeroout = [ s33 ];
zerogas = [ 2 ];
zerosz = [ 1 ];
zerolb = [ 1 ];
zeroub = [ 51 ];
UNARYOP = { SLOAD_0 };
unin = [ s21 ];
unout = [ s25 ];
ungas = [ 700 ];
unsz = [ 1 ];
unlb = [ 11 ];
unub = [ 53 ];
BINARYOP = { EQ_0, SHL_1, SHL_0, OR_1, OR_0, KECCAK256_1, MUL_0, ADD_1, KECCAK256_0, ADD_0, AND_0 };
binin1 = [s1, s43, s44, s32, s11, s37, s1, s23, s37, s1, s2 ];
binin2 = [s42, s35, s33, s34, s31, s45, s46, s25, s45, s0, s47 ];
binout = [s35, s34, s32, s31, s27, s26, s23, s22, s21, s14, s11 ];
bincomm = [true, false, false, true, true, false, true, true, false, true, true ];
bingas = [3, 3, 3, 3, 3, 30, 5, 3, 30, 3, 3 ];
binsz = [1, 1, 1, 1, 1, 1, 1, 1, 1, 1, 1 ];
binlb = [ 2, 4, 3, 8, 11, 19, 2, 14, 10, 1, 2 ];
binub = [ 51, 53, 53, 54, 55, 56, 53, 54, 52, 56, 49 ];
PUSHOP = { PUSH_0, PUSH_1, PUSH_2, PUSH_3, PUSH_4, PUSH_5, PUSH_6, PUSH_7, PUSH_8, PUSH_9, PUSH_10 };
pushout = [ s37, s38, s39, s40, s41, s42, s43, s44, s45, s46, s47 ];
pushgas = [ 3, 3, 3, 3, 3, 3, 3, 3, 3, 3, 3 ];
pushsz = [ 2, 33, 2, 2, 2, 2, 2, 2, 2, 10, 21 ];
pushlb = [ 1, 1, 1, 1, 1, 1, 1, 1, 1, 1, 1 ];
pushub = [ 57, 56, 56, 55, 53, 50, 52, 52, 54, 52, 55 ];
STOROP = { MSTORE_3, MSTORE_2, MSTORE_1, MSTORE_0, SSTORE_1, SSTORE_0 };
storin1 = [s39, s37, s39, s37, s26, s21 ];
storin2 = [s40, s0, s41, s11, s27, s22 ];
storlb = [ 13, 12, 3, 4, 37, 16 ];
storub = [ 55, 55, 51, 51, 57, 56 ];
startstack = [ s0, s1, s2 ];
endstack = [ s37, s37, s38, s37, s11, s0, s14, s11, s0, s1, s2 ];
before = [ S(MSTORE_3), S(MSTORE_2), S(MSTORE_1), S(MSTORE_0), B(KECCAK256_0), B(KECCAK256_0), S(SSTORE_0), U(SLOAD_0) ];
after = [ B(KECCAK256_1), B(KECCAK256_1), B(KECCAK256_0), B(KECCAK256_0), S(MSTORE_2), S(MSTORE_3), S(SSTORE_1), S(SSTORE_0) ];
